20J6M/DAT/20J6MULL-7.dat
20 6
7.4028 7.4028
26.1404 26.1404
38.3106 38.3106
42.3134 42.3134
20.5177 20.5177
2.4208 2.4208
20.8865 20.8865
38.6949 38.6949
27.8685 27.8685
35.4192 35.4192
34.561 34.561
10.9791 10.9791
41.7484 41.7484
33.0107 33.0107
42.9643 42.9643
16.8087 16.8087
23.5066 23.5066
42.6407 42.6407
18.7465 18.7465
16.6447 16.6447
90.2642