20J6M/SOL/20J6MULL-7.sol
solution status: optimal solution found
objective value:                              90.2642
x#1#3                                               1 	(obj:0)
x#2#1                                               1 	(obj:0)
x#3#2                                               1 	(obj:0)
x#4#5                               0.232099051364343 	(obj:0)
x#4#6                               0.767900948635657 	(obj:0)
x#5#3                                0.84130287507859 	(obj:0)
x#5#6                                0.15869712492141 	(obj:0)
x#6#3                                               1 	(obj:0)
x#7#6                                               1 	(obj:0)
x#8#5                                               1 	(obj:0)
x#9#4                                               1 	(obj:0)
x#10#1                                              1 	(obj:0)
x#11#4                               0.85023581493591 	(obj:0)
x#11#6                               0.14976418506409 	(obj:0)
x#12#3                                              1 	(obj:0)
x#13#5                                              1 	(obj:0)
x#14#4                                              1 	(obj:0)
x#15#2                               0.99999301745868 	(obj:0)
x#16#3                                              1 	(obj:0)
x#17#6                                              1 	(obj:0)
x#18#1                              0.673173751838033 	(obj:0)
x#18#2                              0.210822054985026 	(obj:0)
x#18#6                              0.116004193176941 	(obj:0)
x#19#3                                              1 	(obj:0)
x#20#3                                              1 	(obj:0)
z                                             90.2642 	(obj:1)
